<?xml version = "1.0" encoding="UTF-8" standalone="yes"?>
<CPLEXSolution version="1.2">
 <header
   problemName="inst_1_cut_n1"
   objectiveValue="71.821831869510646"
   solutionTypeValue="1"
   solutionTypeString="basic"
   solutionStatusValue="1"
   solutionStatusString="optimal"
   solutionMethodString="dual"
   primalFeasible="1"
   dualFeasible="1"
   simplexIterations="1"
   writeLevel="1"/>
 <quality
   epRHS="9.9999999999999995e-07"
   epOpt="9.9999999999999995e-07"
   maxPrimalInfeas="0"
   maxDualInfeas="0"
   maxPrimalResidual="1.0658141036401503e-13"
   maxDualResidual="1.4210854715202004e-14"
   maxX="0.91844416562107878"
   maxPi="1.2514429109159346"
   maxSlack="580.55583437892085"
   maxRedCost="147.29410288582181"
   kappa="153.00358558946149"/>
 <linearConstraints>
  <constraint name="c0" index="0" status="BS" slack="203.96361355081558" dual="-0"/>
  <constraint name="c1" index="1" status="BS" slack="62.037641154328753" dual="-0"/>
  <constraint name="c2" index="2" status="BS" slack="6.76035131744041" dual="-0"/>
  <constraint name="c3" index="3" status="BS" slack="214.16060225846925" dual="-0"/>
  <constraint name="c4" index="4" status="BS" slack="110.27101631116687" dual="-0"/>
  <constraint name="c5" index="5" status="BS" slack="536.17063989962355" dual="-0"/>
  <constraint name="c6" index="6" status="BS" slack="465.93475533249688" dual="-0"/>
  <constraint name="c7" index="7" status="BS" slack="88.003764115432887" dual="-0"/>
  <constraint name="c8" index="8" status="BS" slack="0.48180677540780437" dual="-0"/>
  <constraint name="c9" index="9" status="BS" slack="580.55583437892085" dual="-0"/>
  <constraint name="c10" index="10" status="BS" slack="382.92973651191966" dual="-0"/>
  <constraint name="c11" index="11" status="BS" slack="524.33375156838144" dual="-0"/>
  <constraint name="c12" index="12" status="BS" slack="421.81053952321207" dual="-0"/>
  <constraint name="c13" index="13" status="LL" slack="0" dual="0.92496863237139271"/>
  <constraint name="c14" index="14" status="BS" slack="95.464240903387719" dual="-0"/>
  <constraint name="cut_1" index="15" status="LL" slack="0" dual="1.2514429109159346"/>
 </linearConstraints>
 <variables>
  <variable name="x0" index="0" status="LL" value="0" reducedCost="-133.81104140526975"/>
  <variable name="x1" index="1" status="LL" value="0" reducedCost="-69.402007528230854"/>
  <variable name="x2" index="2" status="BS" value="0.1179422835633626" reducedCost="0"/>
  <variable name="x3" index="3" status="LL" value="0" reducedCost="-16.879799247176901"/>
  <variable name="x4" index="4" status="LL" value="0" reducedCost="-84.332998745294873"/>
  <variable name="x5" index="5" status="BS" value="0.91844416562107878" reducedCost="0"/>
  <variable name="x6" index="6" status="LL" value="0" reducedCost="-147.29410288582181"/>
  <variable name="s0" index="7" status="LL" value="0" reducedCost="0"/>
  <variable name="s1" index="8" status="LL" value="0" reducedCost="0"/>
  <variable name="s2" index="9" status="LL" value="0" reducedCost="0"/>
  <variable name="s3" index="10" status="LL" value="0" reducedCost="0"/>
  <variable name="s4" index="11" status="LL" value="0" reducedCost="0"/>
  <variable name="s5" index="12" status="LL" value="0" reducedCost="0"/>
  <variable name="s6" index="13" status="LL" value="0" reducedCost="0"/>
  <variable name="s7" index="14" status="LL" value="0" reducedCost="0"/>
  <variable name="s8" index="15" status="LL" value="0" reducedCost="0"/>
  <variable name="s9" index="16" status="LL" value="0" reducedCost="0"/>
  <variable name="s10" index="17" status="LL" value="0" reducedCost="0"/>
  <variable name="s11" index="18" status="LL" value="0" reducedCost="0"/>
  <variable name="s12" index="19" status="LL" value="0" reducedCost="0"/>
  <variable name="s13" index="20" status="LL" value="0" reducedCost="-0.92496863237139271"/>
  <variable name="s14" index="21" status="LL" value="0" reducedCost="0"/>
 </variables>
 <objectiveValues>
  <objective index="0" name="" value="71.821831869510646"/>
 </objectiveValues>
</CPLEXSolution>
